1 32 60 13 38 14 51 






































































































47 8 33 64 54 45 3 
30 19 23 35 46 2 57 
48 18 50 59 49 68 
22 70 29 11 4 62 76 
69 58 17 16 66 56 31 
73 37 20 67 10 42 25 
44 63 71 9 15 34 28 
41 53 72 65 40 27 5 

52 26 21 0 74 36 61 
7 39 6 75 55 24 12 43 

